data;

set A := 102 366 826 352 734 782 966 56 976 292 624 850 266 674 308 982 558 888 354 400 968 736 404 606 1000 878 690 272 54 534 958 698 466 846 122 732 312 360 988 162 140 362 184 774 510 166 524 864 108 808 332 10 374 746 886 526;
param T := 14000;

end;
